Tried aggregator 1 time.
MIP Presolve eliminated 24 rows and 8 columns.
Reduced MIP has 12 rows, 14 columns, and 47 nonzeros.
Reduced MIP has 0 binaries, 0 generals, 0 SOSs, and 0 indicators.
Probing time =    0.00 sec.
Tried aggregator 2 times.
MIP Presolve eliminated 7 rows and 9 columns.
Aggregator did 5 substitutions.
All rows and columns eliminated.
Presolve time =    0.03 sec.
Solution status 101.
Objective value 100

Elapsed time : 0.000 
